# Solution for model Optimization Model
# Objective value = 1.4391143307044689e-02
w_j0_k0_n0 2.5110999995594208e+04
w_j1_k0_n0 2.5110999991188419e+04
w_j2_k0_n0 2.5110999986782561e+04
w_j3_k0_n0 2.5110999982376728e+04
w_j4_k0_n0 2.5110999977970885e+04
w_j5_k0_n0 0
w_j6_k0_n0 0
w_j7_k0_n0 1.4391143435815632e-02
w_j8_k0_n0 1.4391143367787967e-02
w_j9_k0_n0 1.4391143307044689e-02
w_j0_k1_n0 0
w_j1_k1_n0 0
w_j2_k1_n0 0
w_j3_k1_n0 0
w_j4_k1_n0 0
w_j5_k1_n0 1.9009892226742721e+01
w_j6_k1_n0 1.4391143441037984e-02
w_j7_k1_n0 0
w_j8_k1_n0 0
w_j9_k1_n0 0
w_j0_k2_n0 0
w_j1_k2_n0 0
w_j2_k2_n0 0
w_j3_k2_n0 0
w_j4_k2_n0 0
w_j5_k2_n0 0
w_j6_k2_n0 0
w_j7_k2_n0 0
w_j8_k2_n0 0
w_j9_k2_n0 0
w_j0_k3_n0 0
w_j1_k3_n0 0
w_j2_k3_n0 0
w_j3_k3_n0 0
w_j4_k3_n0 0
w_j5_k3_n0 0
w_j6_k3_n0 0
w_j7_k3_n0 0
w_j8_k3_n0 0
w_j9_k3_n0 0
w_j0_k4_n0 0
w_j1_k4_n0 0
w_j2_k4_n0 0
w_j3_k4_n0 0
w_j4_k4_n0 0
w_j5_k4_n0 0
w_j6_k4_n0 0
w_j7_k4_n0 0
w_j8_k4_n0 0
w_j9_k4_n0 0
y_j0_k0 1
y_j1_k0 1
y_j2_k0 1
y_j3_k0 1
y_j4_k0 1
y_j5_k0 0
y_j6_k0 0
y_j7_k0 1
y_j8_k0 1
y_j9_k0 1
y_j0_k1 0
y_j1_k1 0
y_j2_k1 0
y_j3_k1 0
y_j4_k1 0
y_j5_k1 1
y_j6_k1 1
y_j7_k1 0
y_j8_k1 0
y_j9_k1 0
y_j0_k2 0
y_j1_k2 0
y_j2_k2 0
y_j3_k2 0
y_j4_k2 0
y_j5_k2 0
y_j6_k2 0
y_j7_k2 0
y_j8_k2 0
y_j9_k2 0
y_j0_k3 0
y_j1_k3 0
y_j2_k3 0
y_j3_k3 0
y_j4_k3 0
y_j5_k3 0
y_j6_k3 0
y_j7_k3 0
y_j8_k3 0
y_j9_k3 0
y_j0_k4 0
y_j1_k4 0
y_j2_k4 0
y_j3_k4 0
y_j4_k4 0
y_j5_k4 0
y_j6_k4 0
y_j7_k4 0
y_j8_k4 0
y_j9_k4 0
